Version identifier: 20.1.0.0 | 2020-11-10 | 9bedb6d68
CPXPARAM_Parallel                                1
CPXPARAM_Simplex_Limits_Iterations               10000000
CPXPARAM_MIP_Interval                            100
CPXPARAM_TimeLimit                               900
CPXPARAM_MIP_Tolerances_AbsMIPGap                0
CPXPARAM_MIP_Tolerances_MIPGap                   0
Found incumbent of value -1204462.404928 after 0.00 sec. (0.74 ticks)
Tried aggregator 2 times.
MIP Presolve eliminated 504 rows and 360 columns.
MIP Presolve modified 1080 coefficients.
Aggregator did 504 substitutions.
Reduced MIP has 3456 rows, 5145 columns, and 21552 nonzeros.
Reduced MIP has 432 binaries, 0 generals, 0 SOSs, and 0 indicators.
Presolve time = 0.02 sec. (15.26 ticks)
Probing time = 0.00 sec. (0.70 ticks)
Tried aggregator 1 time.
Detecting symmetries...
Reduced MIP has 3456 rows, 5145 columns, and 21552 nonzeros.
Reduced MIP has 858 binaries, 0 generals, 0 SOSs, and 0 indicators.
Presolve time = 0.01 sec. (10.59 ticks)
Probing time = 0.00 sec. (0.97 ticks)
MIP emphasis: balance optimality and feasibility.
MIP search method: dynamic search.
Parallel mode: deterministic, using up to 2 threads.
Root relaxation solution time = 0.09 sec. (53.73 ticks)

        Nodes                                         Cuts/
   Node  Left     Objective  IInf  Best Integer    Best Bound    ItCnt     Gap

*     0+    0                     -1204462.4049 -4474442.5015           271.49%
*     0+    0                     -1686144.2847 -4474442.5015           165.37%
      0     0 -1713247.9745   310 -1686144.2847 -1713247.9745     1763    1.61%
*     0+    0                     -1705988.4625 -1713247.9745             0.43%
*     0+    0                     -1706047.3089 -1713247.9745             0.42%
      0     0 -1708899.6944   145 -1706047.3089     Cuts: 964     2486    0.17%
*     0+    0                     -1707310.4836 -1708899.6944             0.09%
      0     0 -1708116.7339   104 -1707310.4836     Cuts: 484     2857    0.05%
*     0+    0                     -1707914.3041 -1708116.7339             0.01%
      0     0 -1708041.2803    23 -1707914.3041     Cuts: 190     2921    0.01%
*     0+    0                     -1708011.0712 -1708041.2803             0.00%
Detecting symmetries...
      0     2 -1708041.2803    23 -1708011.0712 -1708041.2803     2921    0.00%
Elapsed time = 1.48 sec. (691.33 ticks, tree = 0.02 MB, solutions = 7)
*     6     5      integral     0 -1708013.8021 -1708041.1593     2995    0.00%
*     8     5      integral     0 -1708014.3121 -1708041.1593     3025    0.00%
*     9+    1                     -1708014.6736 -1708041.1593             0.00%
*    10+    4                     -1708014.9071 -1708041.1593             0.00%
*    21+    2                     -1708014.9963 -1708041.1593             0.00%

Implied bound cuts applied:  735
Flow cuts applied:  145
Mixed integer rounding cuts applied:  261
Lift and project cuts applied:  13
Gomory fractional cuts applied:  46

Root node processing (before b&c):
  Real time             =    1.47 sec. (688.24 ticks)
Parallel b&c, 2 threads:
  Real time             =    0.22 sec. (148.44 ticks)
  Sync time (average)   =    0.02 sec.
  Wait time (average)   =    0.00 sec.
                          ------------
Total (root+branch&cut) =    1.70 sec. (836.69 ticks)

Optimal integer solution found
Solution value = 0.000000

CPLEX Error  1217: No solution exists.
Simplex iterations = 0


Version identifier: 20.1.0.0 | 2020-11-10 | 9bedb6d68
CPXPARAM_Parallel                                1
CPXPARAM_Simplex_Limits_Iterations               10000000
CPXPARAM_MIP_Interval                            100
CPXPARAM_TimeLimit                               900
CPXPARAM_MIP_Tolerances_AbsMIPGap                0
CPXPARAM_MIP_Tolerances_MIPGap                   0
Problem is feasible; no conflict available.
Version identifier: 20.1.0.0 | 2020-11-10 | 9bedb6d68
CPXPARAM_Parallel                                1
CPXPARAM_Simplex_Limits_Iterations               10000000
CPXPARAM_MIP_Interval                            100
CPXPARAM_TimeLimit                               900
CPXPARAM_MIP_Tolerances_AbsMIPGap                0
CPXPARAM_MIP_Tolerances_MIPGap                   0
Tried aggregator 2 times.
MIP Presolve eliminated 565 rows and 353 columns.
MIP Presolve modified 717 coefficients.
Aggregator did 733 substitutions.
Reduced MIP has 3592 rows, 5722 columns, and 23533 nonzeros.
Reduced MIP has 432 binaries, 0 generals, 0 SOSs, and 0 indicators.
Presolve time = 0.02 sec. (16.17 ticks)
Found incumbent of value 3.9264535e+10 after 0.03 sec. (22.83 ticks)
Probing fixed 0 vars, tightened 17 bounds.
Probing time = 0.00 sec. (0.86 ticks)
Tried aggregator 1 time.
Detecting symmetries...
MIP Presolve modified 34 coefficients.
Reduced MIP has 3592 rows, 5722 columns, and 23533 nonzeros.
Reduced MIP has 858 binaries, 0 generals, 0 SOSs, and 0 indicators.
Presolve time = 0.01 sec. (11.48 ticks)
Probing time = 0.00 sec. (1.11 ticks)
MIP emphasis: balance optimality and feasibility.
MIP search method: dynamic search.
Parallel mode: deterministic, using up to 2 threads.
Root relaxation solution time = 0.06 sec. (46.34 ticks)

        Nodes                                         Cuts/
   Node  Left     Objective  IInf  Best Integer    Best Bound    ItCnt     Gap

*     0+    0                       3.92645e+10  -2.59407e+07           100.07%
*     0+    0                     -1575700.6751  -2.59407e+07              --- 
      0     0 -1656379.6236   235 -1575700.6751 -1656379.6236     2367    5.12%
*     0+    0                     -1646850.8984 -1656379.6236             0.58%
      0     0 -1650547.9473   164 -1646850.8984     Cuts: 867     3270    0.22%
*     0+    0                     -1646982.4755 -1650547.9473             0.22%
      0     0 -1648685.2100   160 -1646982.4755     Cuts: 790     3964    0.10%
*     0+    0                     -1648361.8265 -1648685.2100             0.02%
      0     0 -1648482.1406   101 -1648361.8265     Cuts: 314     4210    0.01%
*     0+    0                     -1648407.9567 -1648482.1406             0.00%
      0     0 -1648438.2963    96 -1648407.9567      Cuts: 87     4345    0.00%
      0     0 -1648417.3999    95 -1648407.9567      Cuts: 45     4399    0.00%
Detecting symmetries...

Repeating presolve.
Tried aggregator 4 times.
MIP Presolve eliminated 2117 rows and 2746 columns.
MIP Presolve modified 472 coefficients.
Aggregator did 355 substitutions.
Reduced MIP has 1120 rows, 2617 columns, and 9372 nonzeros.
Reduced MIP has 147 binaries, 0 generals, 0 SOSs, and 0 indicators.
Presolve time = 0.02 sec. (16.58 ticks)
Probing fixed 0 vars, tightened 238 bounds.
Probing time = 0.00 sec. (2.54 ticks)
Tried aggregator 1 time.
Detecting symmetries...
MIP Presolve eliminated 0 rows and 54 columns.
MIP Presolve modified 168 coefficients.
Reduced MIP has 1120 rows, 2563 columns, and 9264 nonzeros.
Reduced MIP has 147 binaries, 0 generals, 0 SOSs, and 0 indicators.
Presolve time = 0.01 sec. (5.69 ticks)
Represolve time = 0.04 sec. (38.54 ticks)
Probing time = 0.00 sec. (2.37 ticks)
Clique table members: 471.
MIP emphasis: balance optimality and feasibility.
MIP search method: dynamic search.
Parallel mode: deterministic, using up to 2 threads.
Root relaxation solution time = 0.06 sec. (40.78 ticks)

        Nodes                                         Cuts/
   Node  Left     Objective  IInf  Best Integer    Best Bound    ItCnt     Gap

*     0+    0                     -1648407.9567 -1648417.3999             0.00%
      0     0 -1648415.4723    54 -1648407.9567 -1648415.4723     5674    0.00%
      0     0        cutoff       -1648407.9567 -1648407.9567     5720    0.00%
Elapsed time = 1.35 sec. (832.37 ticks, tree = 0.01 MB, solutions = 10)

Implied bound cuts applied:  433
Flow cuts applied:  40
Mixed integer rounding cuts applied:  175
Lift and project cuts applied:  5
Gomory fractional cuts applied:  20

Root node processing (before b&c):
  Real time             =    1.35 sec. (833.05 ticks)
Parallel b&c, 2 threads:
  Real time             =    0.00 sec. (0.00 ticks)
  Sync time (average)   =    0.00 sec.
  Wait time (average)   =    0.00 sec.
                          ------------
Total (root+branch&cut) =    1.35 sec. (833.05 ticks)

Optimal integer solution found
Solution value = 0.000000

CPLEX Error  1217: No solution exists.
Simplex iterations = 0


Version identifier: 20.1.0.0 | 2020-11-10 | 9bedb6d68
CPXPARAM_Parallel                                1
CPXPARAM_Simplex_Limits_Iterations               10000000
CPXPARAM_MIP_Interval                            100
CPXPARAM_TimeLimit                               900
CPXPARAM_MIP_Tolerances_AbsMIPGap                0
CPXPARAM_MIP_Tolerances_MIPGap                   0
Problem is feasible; no conflict available.
Version identifier: 20.1.0.0 | 2020-11-10 | 9bedb6d68
CPXPARAM_Parallel                                1
CPXPARAM_Simplex_Limits_Iterations               10000000
CPXPARAM_MIP_Interval                            100
CPXPARAM_TimeLimit                               900
CPXPARAM_MIP_Tolerances_AbsMIPGap                0
CPXPARAM_MIP_Tolerances_MIPGap                   0
Tried aggregator 2 times.
MIP Presolve eliminated 704 rows and 509 columns.
MIP Presolve modified 927 coefficients.
Aggregator did 628 substitutions.
Reduced MIP has 3558 rows, 5511 columns, and 22752 nonzeros.
Reduced MIP has 432 binaries, 0 generals, 0 SOSs, and 0 indicators.
Presolve time = 0.02 sec. (15.95 ticks)
Found incumbent of value 5.3254641e+10 after 0.03 sec. (21.94 ticks)
Probing time = 0.00 sec. (0.76 ticks)
Tried aggregator 1 time.
Detecting symmetries...
Reduced MIP has 3558 rows, 5511 columns, and 22752 nonzeros.
Reduced MIP has 858 binaries, 0 generals, 0 SOSs, and 0 indicators.
Presolve time = 0.01 sec. (10.82 ticks)
Probing time = 0.00 sec. (1.04 ticks)
MIP emphasis: balance optimality and feasibility.
MIP search method: dynamic search.
Parallel mode: deterministic, using up to 2 threads.
Root relaxation solution time = 0.11 sec. (53.49 ticks)

        Nodes                                         Cuts/
   Node  Left     Objective  IInf  Best Integer    Best Bound    ItCnt     Gap

*     0+    0                       5.32546e+10  -2.16202e+07           100.04%
*     0+    0                     -1600181.0961  -2.16202e+07              --- 
      0     0 -1645316.4786   319 -1600181.0961 -1645316.4786     2332    2.82%
*     0+    0                     -1636653.8198 -1645316.4786             0.53%
*     0+    0                     -1636933.3126 -1645316.4786             0.51%
      0     0 -1640439.3524   195 -1636933.3126     Cuts: 989     3237    0.21%
*     0+    0                     -1638373.3334 -1640439.3524             0.13%
      0     0 -1639083.9283   101 -1638373.3334     Cuts: 720     3802    0.04%
*     0+    0                     -1638714.0773 -1639083.9283             0.02%
      0     0 -1638957.0785    13 -1638714.0773     Cuts: 149     3895    0.01%
*     0+    0                     -1638956.7961 -1638957.0785             0.00%
Detecting symmetries...

Repeating presolve.
Tried aggregator 4 times.
MIP Presolve eliminated 2230 rows and 2396 columns.
MIP Presolve modified 380 coefficients.
Aggregator did 467 substitutions.
Reduced MIP has 861 rows, 2645 columns, and 8014 nonzeros.
Reduced MIP has 84 binaries, 0 generals, 0 SOSs, and 0 indicators.
Presolve time = 0.02 sec. (18.32 ticks)
Probing fixed 0 vars, tightened 168 bounds.
Probing time = 0.00 sec. (1.43 ticks)
Tried aggregator 1 time.
Detecting symmetries...
MIP Presolve modified 76 coefficients.
Reduced MIP has 861 rows, 2645 columns, and 8014 nonzeros.
Reduced MIP has 84 binaries, 0 generals, 0 SOSs, and 0 indicators.
Presolve time = 0.01 sec. (3.89 ticks)
Represolve time = 0.04 sec. (41.82 ticks)
Probing fixed 0 vars, tightened 10 bounds.
Probing time = 0.00 sec. (1.25 ticks)
Clique table members: 192.
MIP emphasis: balance optimality and feasibility.
MIP search method: dynamic search.
Parallel mode: deterministic, using up to 2 threads.
Root relaxation solution time = 0.01 sec. (9.16 ticks)

        Nodes                                         Cuts/
   Node  Left     Objective  IInf  Best Integer    Best Bound    ItCnt     Gap

*     0+    0                     -1638956.7961 -1638956.8811             0.00%
      0     0        cutoff       -1638956.7961                   4344    0.00%

Implied bound cuts applied:  216
Flow cuts applied:  19
Mixed integer rounding cuts applied:  175
Lift and project cuts applied:  7
Gomory fractional cuts applied:  29

Root node processing (before b&c):
  Real time             =    1.05 sec. (649.31 ticks)
Parallel b&c, 2 threads:
  Real time             =    0.00 sec. (0.00 ticks)
  Sync time (average)   =    0.00 sec.
  Wait time (average)   =    0.00 sec.
                          ------------
Total (root+branch&cut) =    1.05 sec. (649.31 ticks)

Optimal integer solution found
Solution value = 0.000000

CPLEX Error  1217: No solution exists.
Simplex iterations = 0


Version identifier: 20.1.0.0 | 2020-11-10 | 9bedb6d68
CPXPARAM_Parallel                                1
CPXPARAM_Simplex_Limits_Iterations               10000000
CPXPARAM_MIP_Interval                            100
CPXPARAM_TimeLimit                               900
CPXPARAM_MIP_Tolerances_AbsMIPGap                0
CPXPARAM_MIP_Tolerances_MIPGap                   0
Problem is feasible; no conflict available.
Version identifier: 20.1.0.0 | 2020-11-10 | 9bedb6d68
CPXPARAM_Parallel                                1
CPXPARAM_Simplex_Limits_Iterations               10000000
CPXPARAM_MIP_Interval                            100
CPXPARAM_TimeLimit                               900
CPXPARAM_MIP_Tolerances_AbsMIPGap                0
CPXPARAM_MIP_Tolerances_MIPGap                   0
Tried aggregator 1 time.
LP Presolve eliminated 1559 rows and 719 columns.
Aggregator did 251 substitutions.
Reduced LP has 734 rows, 3061 columns, and 8138 nonzeros.
Presolve time = 0.00 sec. (3.79 ticks)
Initializing dual steep norms . . .

Iteration log . . .
Iteration:     1   Scaled dual infeas =         39394.836000
Iteration:     5   Dual objective     =      -2743752.025279
Iteration:   129   Dual objective     =      -2428428.448976
Iteration:   210   Dual objective     =      -2100965.994511
Iteration:   358   Dual objective     =      -1761992.060758

Optimal solution is available
Solution value = 0.000000

Simplex iterations = 439


Version identifier: 20.1.0.0 | 2020-11-10 | 9bedb6d68
CPXPARAM_Parallel                                1
CPXPARAM_Simplex_Limits_Iterations               10000000
CPXPARAM_MIP_Interval                            100
CPXPARAM_TimeLimit                               900
CPXPARAM_MIP_Tolerances_AbsMIPGap                0
CPXPARAM_MIP_Tolerances_MIPGap                   0
Problem is feasible; no conflict available.
Version identifier: 20.1.0.0 | 2020-11-10 | 9bedb6d68
CPXPARAM_Parallel                                1
CPXPARAM_Simplex_Limits_Iterations               10000000
CPXPARAM_MIP_Interval                            100
CPXPARAM_TimeLimit                               900
CPXPARAM_MIP_Tolerances_AbsMIPGap                0
CPXPARAM_MIP_Tolerances_MIPGap                   0
Tried aggregator 1 time.
LP Presolve eliminated 1559 rows and 719 columns.
Aggregator did 251 substitutions.
Reduced LP has 734 rows, 3085 columns, and 8208 nonzeros.
Presolve time = 0.00 sec. (3.82 ticks)
Initializing dual steep norms . . .

Iteration log . . .
Iteration:     1   Scaled dual infeas =         23653.818000
Iteration:     5   Dual objective     =      -2723534.954684
Iteration:   144   Dual objective     =      -2410002.707731
Iteration:   295   Dual objective     =      -1927666.293834
Iteration:   420   Dual objective     =      -1639330.762901

Optimal solution is available
Solution value = 0.000000

Simplex iterations = 433


Version identifier: 20.1.0.0 | 2020-11-10 | 9bedb6d68
CPXPARAM_Parallel                                1
CPXPARAM_Simplex_Limits_Iterations               10000000
CPXPARAM_MIP_Interval                            100
CPXPARAM_TimeLimit                               900
CPXPARAM_MIP_Tolerances_AbsMIPGap                0
CPXPARAM_MIP_Tolerances_MIPGap                   0
Problem is feasible; no conflict available.
Version identifier: 20.1.0.0 | 2020-11-10 | 9bedb6d68
CPXPARAM_Parallel                                1
CPXPARAM_Simplex_Limits_Iterations               10000000
CPXPARAM_MIP_Interval                            100
CPXPARAM_TimeLimit                               900
CPXPARAM_MIP_Tolerances_AbsMIPGap                0
CPXPARAM_MIP_Tolerances_MIPGap                   0
Tried aggregator 1 time.
LP Presolve eliminated 1559 rows and 719 columns.
Aggregator did 251 substitutions.
Reduced LP has 734 rows, 2995 columns, and 7936 nonzeros.
Presolve time = 0.00 sec. (3.73 ticks)
Initializing dual steep norms . . .

Iteration log . . .
Iteration:     1   Scaled dual infeas =         43088.886000
Iteration:     6   Dual objective     =      -2731415.048988
Iteration:   143   Dual objective     =      -2414974.926777
Iteration:   304   Dual objective     =      -1913965.202132
Iteration:   426   Dual objective     =      -1637710.254698

Optimal solution is available
Solution value = 0.000000

Simplex iterations = 435


Version identifier: 20.1.0.0 | 2020-11-10 | 9bedb6d68
CPXPARAM_Parallel                                1
CPXPARAM_Simplex_Limits_Iterations               10000000
CPXPARAM_MIP_Interval                            100
CPXPARAM_TimeLimit                               900
CPXPARAM_MIP_Tolerances_AbsMIPGap                0
CPXPARAM_MIP_Tolerances_MIPGap                   0
Problem is feasible; no conflict available.
